
! rncof1=20.106 corresponds to c/(4*pi) = 1.6

 $CONTRL SCFTYP=rhf CITYP=aldet COORD=unique units=angstrom
         MULT=1 RUNTYP=energy exetyp=run icharg=0
         mplevl=0 ispher=-1 maxit=200
         inttyp=rysquad grdtyp=rysquad nprint=4 $end
 $scf    conv=1.0d-05 soscf=.t. $end
 $CIDET  ncore=0 nact=3 nels=2  $END
 $RENORM irnorm=1 rncut=1.0 rncof1=20.106  $END
 $SYSTEM TIMLIM=100000000 mwords=30 $END
 $GUESS  GUESS=huckel norb=6 $END
 $DATA

 C1
 HE          2.0   0.0000000000   0.0000000000   0.0000000000
 S   3
  1     98.1243000              0.0287452        
  2     14.7689000              0.2080610        
  3      3.3188300              0.8376350        
 S   1
  1      0.8740470              1.0000000        
 S   1
  1      0.2445640              1.0000000        

 $END

