
 $CONTRL SCFTYP=rhf CITYP=aldet COORD=unique units=angstrom
         MULT=1 RUNTYP=energy exetyp=run icharg=0
         mplevl=0 ispher=-1 maxit=200
         inttyp=rysquad grdtyp=rysquad nprint=4 $end
 $scf    conv=1.0d-05 soscf=.t. $end
 $CIDET  ncore=0 nact=15 nels=2  $END
 $RENORM irnorm=1 rncut=1.0 rncof1=20.106  $END
 $SYSTEM TIMLIM=100000000 mwords=30 $END
 $GUESS  GUESS=huckel norb=15 $END
 $DATA

 C1
 HE          2.0   0.0000000000   0.0000000000   0.0000000000
 S   4
  1    234.0000000              0.0025870        
  2     35.1600000              0.0195330        
  3      7.9890000              0.0909980        
  4      2.2120000              0.2720500        
 S   1
  1      0.6669000              1.0000000        
 S   1
  1      0.2089000              1.0000000        
 P   1
  1      3.0440000              1.0000000        
 P   1
  1      0.7580000              1.0000000        
 D   1
  1      1.9650000              1.0000000        

 $END

